StringID   Type       x          y          demand     ReadyTime  DueDate    ServiceTime wp1 wp2 wp3 wp4 wp5 wp6 wp7 wp8 wp9 wp10 wp11 wp12 wp13 wp14 wp15 wp16
D0         d          40.0       50.0       0.0        0.0        960.0      0.0         6   7   8   9   10  11  12  13  14  15   16   17   18   19   20   21
S0         f          40.0       50.0       0.0        0.0        960.0      0.0         0.2 0.4 0.6 1   1   1   1   1   1   1    1    0.6  0.4  0.2  0    0
S1         f          73.0       52.0       0.0        0.0        960.0      0.0         0.2 0.4 0.6 1   1   1   1   1   1   1    1    0.6  0.4  0.2  0    0
S2         f          90.0       55.0       0.0        0.0        960.0      0.0         0.2 0.4 0.6 1   1   1   1   1   1   1    1    0.6  0.4  0.2  0    0
S3         f          55.0       79.0       0.0        0.0        960.0      0.0         0.2 0.4 0.6 1   1   1   1   1   1   1    1    0.6  0.4  0.2  0    0
S4         f          69.0       89.0       0.0        0.0        960.0      0.0         0   0.1 0.2 0.3 0.3 0.2 0.2 0.2 0.2 0.3  0.3  0.2  0.1  0.0  0    0
S5         f          32.0       80.0       0.0        0.0        960.0      0.0         0   0.1 0.2 0.3 0.3 0.2 0.2 0.2 0.2 0.3  0.3  0.2  0.1  0.0  0    0
S6         f          39.0       96.0       0.0        0.0        960.0      0.0         0   0.1 0.2 0.3 0.3 0.2 0.2 0.2 0.2 0.3  0.3  0.2  0.1  0.0  0    0
S7         f          23.0       80.0       0.0        0.0        960.0      0.0         0.2 0.4 0.6 1   1   1   1   1   1   1    1    0.6  0.4  0.2  0    0
S8         f          4.0        83.0       0.0        0.0        960.0      0.0         0.2 0.4 0.6 1   1   1   1   1   1   1    1    0.6  0.4  0.2  0    0
S9         f          18.0       58.0       0.0        0.0        960.0      0.0         0   0.1 0.2 0.3 0.3 0.2 0.2 0.2 0.2 0.3  0.3  0.2  0.1  0.0  0    0
S10        f          1.0        56.0       0.0        0.0        960.0      0.0         0   0.1 0.2 0.3 0.3 0.2 0.2 0.2 0.2 0.3  0.3  0.2  0.1  0.0  0    0
S11        f          13.0       31.0       0.0        0.0        960.0      0.0         0   0.1 0.2 0.3 0.3 0.2 0.2 0.2 0.2 0.3  0.3  0.2  0.1  0.0  0    0
S12        f          -5.0       38.0       0.0        0.0        960.0      0.0         0.2 0.4 0.6 1   1   1   1   1   1   1    1    0.6  0.4  0.2  0    0
S13        f          26.0       37.0       0.0        0.0        960.0      0.0         0.2 0.4 0.6 1   1   1   1   1   1   1    1    0.6  0.4  0.2  0    0
S14        f          28.0       13.0       0.0        0.0        960.0      0.0         0.2 0.4 0.6 1   1   1   1   1   1   1    1    0.6  0.4  0.2  0    0
S15        f          39.0       31.0       0.0        0.0        960.0      0.0         0   0.1 0.2 0.3 0.3 0.2 0.2 0.2 0.2 0.3  0.3  0.2  0.1  0.0  0    0
S16        f          48.0       11.0       0.0        0.0        960.0      0.0         0   0.1 0.2 0.3 0.3 0.2 0.2 0.2 0.2 0.3  0.3  0.2  0.1  0.0  0    0
S17        f          59.0       17.0       0.0        0.0        960.0      0.0         0.2 0.4 0.6 1   1   1   1   1   1   1    1    0.6  0.4  0.2  0    0
S18        f          73.0       23.0       0.0        0.0        960.0      0.0         0.2 0.4 0.6 1   1   1   1   1   1   1    1    0.6  0.4  0.2  0    0
S19        f          74.0       32.0       0.0        0.0        960.0      0.0         0   0.1 0.2 0.3 0.3 0.2 0.2 0.2 0.2 0.3  0.3  0.2  0.1  0.0  0    0
S20        f          90.0       44.0       0.0        0.0        960.0      0.0         0.2 0.4 0.6 1   1   1   1   1   1   1    1    0.6  0.4  0.2  0    0
C1         c          25.0       85.0       20.0       319.0      401.0      10.0       
C2         c          22.0       75.0       30.0       31.0       364.0      10.0       
C3         c          22.0       85.0       10.0       113.0      683.0      10.0       
C4         c          20.0       80.0       40.0       746.0      798.0      10.0       
C5         c          20.0       85.0       20.0       525.0      909.0      10.0       
C6         c          18.0       75.0       20.0       142.0      494.0      10.0       
C7         c          15.0       75.0       20.0       160.0      218.0      10.0       
C8         c          15.0       80.0       10.0       381.0      619.0      10.0       
C9         c          10.0       35.0       20.0       559.0      869.0      10.0       
C10        c          10.0       40.0       30.0       382.0      550.0      10.0    
C35        c          67.0       85.0       20.0       491.0      905.0      10.0       
C36        c          65.0       85.0       40.0       457.0      697.0      10.0       
C37        c          65.0       82.0       10.0       84.0       540.0      10.0       
C38        c          62.0       80.0       30.0       38.0       365.0      10.0       
C39        c          60.0       80.0       10.0       545.0      913.0      10.0       
C40        c          60.0       85.0       30.0       508.0      636.0      10.0       
C41        c          58.0       75.0       20.0       187.0      447.0      10.0       
C42        c          55.0       80.0       10.0       545.0      615.0      10.0       
C43        c          55.0       85.0       20.0       39.0       490.0      10.0       
C44        c          55.0       82.0       10.0       369.0      651.0      10.0      
C45        c          20.0       82.0       10.0       448.0      912.0      10.0       
C46        c          18.0       80.0       10.0       628.0      912.0      10.0       
C47        c          2.0        45.0       10.0       160.0      478.0      10.0       
C48        c          42.0       5.0        10.0       46.0       344.0      10.0       
C49        c          42.0       12.0       10.0       152.0      384.0      10.0       

F Vehicle fuel tank capacity /12/
Q Vehicle load capacity /1000.0/
r fuel consumption rate /0.155/
g inverse refueling rate /0.5/
v average Velocity /1.0/
